c WARNING: for repeatability, setting FPU to use double precision
d VARIABLES            122454       
d CONSTRAINTS          543080       
c ============================[ Problem Statistics ]=============================
c |                                                                             |
c |  Number of variables:        122454                                         |
c |  Number of clauses:          543080                                         |
c |  Parse time:                   0.08 s                                       |
c |                                                                             |
c ============================[ Search Statistics ]==============================
c | Conflicts |          ORIGINAL         |          LEARNT          | Progress |
c |           |    Vars  Clauses Literals |    Limit  Clauses Lit/Cl |          |
c ===============================================================================
c |       100 |  103566   489200  1186072 |   179373      100     19 | 15.425 % |
c |       250 |  103566   489200  1186072 |   197310      250     27 | 15.425 % |
c |       475 |  103566   489200  1186072 |   217041      475     46 | 15.425 % |
c |       812 |  103566   489200  1186072 |   238745      812     66 | 15.425 % |
c |      1318 |  103566   489200  1186072 |   262620     1318     74 | 15.425 % |
c |      2077 |  103566   489200  1186072 |   288882     2077     89 | 15.425 % |
c |      3216 |  103566   489200  1186072 |   317770     3216    168 | 15.425 % |
c |      4924 |  103566   489200  1186072 |   349547     4924    160 | 15.425 % |
c |      7486 |  103566   489200  1186072 |   384502     7486    157 | 15.425 % |
c |     11330 |  103566   489200  1186072 |   422952    11330    152 | 15.425 % |
c |     17096 |  103566   489200  1186072 |   465248    17096    162 | 15.425 % |
c ===============================================================================
c restarts              : 93
c conflicts             : 25467          (2528 /sec)
c decisions             : 135341         (0.00 % random) (13437 /sec)
c propagations          : 55327598       (5492866 /sec)
c conflict literals     : 4323445        (7.42 % deleted)
d RESTARTS             93
d FAILURES             25467        
d NODES                135341       
d BACKTRACKS           135341       
d PROPAGATIONS         55327598     
d NOGOODSIZE           169.77 
d MEMORY               64.00 
d TIME                 10.0726 

s SATISFIABLE
